\ENCODING=ISO-8859-1
\Problem name: IloCplex

Maximize
 obj: y1 + y2 + y3 + y4 + y5 + y6
Subject To
 c1:           y0  = 1
 c2:           y7  = 1
 c3:           - y1 + x01 + x21 + x31 + x41 + x51 + x61  = 0
 c4:           - y2 + x02 + x12 + x32 + x42 + x52 + x62  = 0
 c5:           - y3 + x03 + x13 + x23 + x43 + x53 + x63  = 0
 c6:           - y4 + x04 + x14 + x24 + x34 + x54 + x64  = 0
 c7:           - y5 + x05 + x15 + x25 + x35 + x45 + x65  = 0
 c8:           - y6 + x06 + x16 + x26 + x36 + x46 + x56  = 0
 c9:           - y7 + x07 + x17 + x27 + x37 + x47 + x57 + x67  = 0
 c10:          - y0 + x01 + x02 + x03 + x04 + x05 + x06 + x07  = 0
 c11:          - y1 + x12 + x13 + x14 + x15 + x16 + x17  = 0
 c12:          - y2 + x21 + x23 + x24 + x25 + x26 + x27  = 0
 c13:          - y3 + x31 + x32 + x34 + x35 + x36 + x37  = 0
 c14:          - y4 + x41 + x42 + x43 + x45 + x46 + x47  = 0
 c15:          - y5 + x51 + x52 + x53 + x54 + x56 + x57  = 0
 c16:          - y6 + x61 + x62 + x63 + x64 + x65 + x67  = 0
 c17:          - y1 + f01 - f12 - f13 - f14 - f15 - f16 - f17 + f21 + f31 + f41
               + f51 + f61  = 0
 c18:          - y2 + f02 + f12 - f21 - f23 - f24 - f25 - f26 - f27 + f32 + f42
               + f52 + f62  = 0
 c19:          - y3 + f03 + f13 + f23 - f31 - f32 - f34 - f35 - f36 - f37 + f43
               + f53 + f63  = 0
 c20:          - y4 + f04 + f14 + f24 + f34 - f41 - f42 - f43 - f45 - f46 - f47
               + f54 + f64  = 0
 c21:          - y5 + f05 + f15 + f25 + f35 + f45 - f51 - f52 - f53 - f54 - f56
               - f57 + f65  = 0
 c22:          - y6 + f06 + f16 + f26 + f36 + f46 + f56 - f61 - f62 - f63 - f64
               - f65 - f67  = 0
 c23:          - y7 + f07 + f17 + f27 + f37 + f47 + f57 + f67 - f71 - f72 - f73
               - f74 - f75 - f76  = 0
 c24:          - 7 x01 + f01 <= 0
 c25:          - 7 x02 + f02 <= 0
 c26:          - 7 x03 + f03 <= 0
 c27:          - 7 x04 + f04 <= 0
 c28:          - 7 x05 + f05 <= 0
 c29:          - 7 x06 + f06 <= 0
 c30:          - 7 x07 + f07 <= 0
 c31:          - 7 x10 + f10 <= 0
 c32:          - 7 x12 + f12 <= 0
 c33:          - 7 x13 + f13 <= 0
 c34:          - 7 x14 + f14 <= 0
 c35:          - 7 x15 + f15 <= 0
 c36:          - 7 x16 + f16 <= 0
 c37:          - 7 x17 + f17 <= 0
 c38:          - 7 x20 + f20 <= 0
 c39:          - 7 x21 + f21 <= 0
 c40:          - 7 x23 + f23 <= 0
 c41:          - 7 x24 + f24 <= 0
 c42:          - 7 x25 + f25 <= 0
 c43:          - 7 x26 + f26 <= 0
 c44:          - 7 x27 + f27 <= 0
 c45:          - 7 x30 + f30 <= 0
 c46:          - 7 x31 + f31 <= 0
 c47:          - 7 x32 + f32 <= 0
 c48:          - 7 x34 + f34 <= 0
 c49:          - 7 x35 + f35 <= 0
 c50:          - 7 x36 + f36 <= 0
 c51:          - 7 x37 + f37 <= 0
 c52:          - 7 x40 + f40 <= 0
 c53:          - 7 x41 + f41 <= 0
 c54:          - 7 x42 + f42 <= 0
 c55:          - 7 x43 + f43 <= 0
 c56:          - 7 x45 + f45 <= 0
 c57:          - 7 x46 + f46 <= 0
 c58:          - 7 x47 + f47 <= 0
 c59:          - 7 x50 + f50 <= 0
 c60:          - 7 x51 + f51 <= 0
 c61:          - 7 x52 + f52 <= 0
 c62:          - 7 x53 + f53 <= 0
 c63:          - 7 x54 + f54 <= 0
 c64:          - 7 x56 + f56 <= 0
 c65:          - 7 x57 + f57 <= 0
 c66:          - 7 x60 + f60 <= 0
 c67:          - 7 x61 + f61 <= 0
 c68:          - 7 x62 + f62 <= 0
 c69:          - 7 x63 + f63 <= 0
 c70:          - 7 x64 + f64 <= 0
 c71:          - 7 x65 + f65 <= 0
 c72:          - 7 x67 + f67 <= 0
 c73:          - 7 x70 + f70 <= 0
 c74:          - 7 x71 + f71 <= 0
 c75:          - 7 x72 + f72 <= 0
 c76:          - 7 x73 + f73 <= 0
 c77:          - 7 x74 + f74 <= 0
 c78:          - 7 x75 + f75 <= 0
 c79:          - 7 x76 + f76 <= 0
 c80:          z01  = 1
 c81:          z10  = 0
 c82:          z07  = 1
 c83:          z70  = 0
 c84:          z02  = 1
 c85:          z20  = 0
 c86:          z17  = 1
 c87:          z71  = 0
 c88:          z03  = 1
 c89:          z30  = 0
 c90:          z27  = 1
 c91:          z72  = 0
 c92:          z04  = 1
 c93:          z40  = 0
 c94:          z37  = 1
 c95:          z73  = 0
 c96:          z05  = 1
 c97:          z50  = 0
 c98:          z47  = 1
 c99:          z74  = 0
 c100:         z06  = 1
 c101:         z60  = 0
 c102:         z57  = 1
 c103:         z75  = 0
 c104:         z07  = 1
 c105:         z70  = 0
 c106:         z67  = 1
 c107:         z76  = 0
 doideira_1:   1000 z12 - f01 + f02 + f12 - f21 - f31 + f32 - f41 + f42 - f51
               + f52 - f61 + f62 - f71 + f72 >= 0
 doideira_1:   1000 z13 - f01 + f03 + f13 - f21 + f23 - f31 - f41 + f43 - f51
               + f53 - f61 + f63 - f71 + f73 >= 0
 doideira_1:   1000 z14 - f01 + f04 + f14 - f21 + f24 - f31 + f34 - f41 - f51
               + f54 - f61 + f64 - f71 + f74 >= 0
 doideira_1:   1000 z15 - f01 + f05 + f15 - f21 + f25 - f31 + f35 - f41 + f45
               - f51 - f61 + f65 - f71 + f75 >= 0
 doideira_1:   1000 z16 - f01 + f06 + f16 - f21 + f26 - f31 + f36 - f41 + f46
               - f51 + f56 - f61 - f71 + f76 >= 0
 doideira_1:   1000 z21 + f01 - f02 - f12 + f21 + f31 - f32 + f41 - f42 + f51
               - f52 + f61 - f62 + f71 - f72 >= 0
 doideira_1:   1000 z23 - f02 + f03 - f12 + f13 + f23 - f32 - f42 + f43 - f52
               + f53 - f62 + f63 - f72 + f73 >= 0
 doideira_1:   1000 z24 - f02 + f04 - f12 + f14 + f24 - f32 + f34 - f42 - f52
               + f54 - f62 + f64 - f72 + f74 >= 0
 doideira_1:   1000 z25 - f02 + f05 - f12 + f15 + f25 - f32 + f35 - f42 + f45
               - f52 - f62 + f65 - f72 + f75 >= 0
 doideira_1:   1000 z26 - f02 + f06 - f12 + f16 + f26 - f32 + f36 - f42 + f46
               - f52 + f56 - f62 - f72 + f76 >= 0
 doideira_1:   1000 z31 + f01 - f03 - f13 + f21 - f23 + f31 + f41 - f43 + f51
               - f53 + f61 - f63 + f71 - f73 >= 0
 doideira_1:   1000 z32 + f02 - f03 + f12 - f13 - f23 + f32 + f42 - f43 + f52
               - f53 + f62 - f63 + f72 - f73 >= 0
 doideira_1:   1000 z34 - f03 + f04 - f13 + f14 - f23 + f24 + f34 - f43 - f53
               + f54 - f63 + f64 - f73 + f74 >= 0
 doideira_1:   1000 z35 - f03 + f05 - f13 + f15 - f23 + f25 + f35 - f43 + f45
               - f53 - f63 + f65 - f73 + f75 >= 0
 doideira_1:   1000 z36 - f03 + f06 - f13 + f16 - f23 + f26 + f36 - f43 + f46
               - f53 + f56 - f63 - f73 + f76 >= 0
 doideira_1:   1000 z41 + f01 - f04 - f14 + f21 - f24 + f31 - f34 + f41 + f51
               - f54 + f61 - f64 + f71 - f74 >= 0
 doideira_1:   1000 z42 + f02 - f04 + f12 - f14 - f24 + f32 - f34 + f42 + f52
               - f54 + f62 - f64 + f72 - f74 >= 0
 doideira_1:   1000 z43 + f03 - f04 + f13 - f14 + f23 - f24 - f34 + f43 + f53
               - f54 + f63 - f64 + f73 - f74 >= 0
 doideira_1:   1000 z45 - f04 + f05 - f14 + f15 - f24 + f25 - f34 + f35 + f45
               - f54 - f64 + f65 - f74 + f75 >= 0
 doideira_1:   1000 z46 - f04 + f06 - f14 + f16 - f24 + f26 - f34 + f36 + f46
               - f54 + f56 - f64 - f74 + f76 >= 0
 doideira_1:   1000 z51 + f01 - f05 - f15 + f21 - f25 + f31 - f35 + f41 - f45
               + f51 + f61 - f65 + f71 - f75 >= 0
 doideira_1:   1000 z52 + f02 - f05 + f12 - f15 - f25 + f32 - f35 + f42 - f45
               + f52 + f62 - f65 + f72 - f75 >= 0
 doideira_1:   1000 z53 + f03 - f05 + f13 - f15 + f23 - f25 - f35 + f43 - f45
               + f53 + f63 - f65 + f73 - f75 >= 0
 doideira_1:   1000 z54 + f04 - f05 + f14 - f15 + f24 - f25 + f34 - f35 - f45
               + f54 + f64 - f65 + f74 - f75 >= 0
 doideira_1:   1000 z56 - f05 + f06 - f15 + f16 - f25 + f26 - f35 + f36 - f45
               + f46 + f56 - f65 - f75 + f76 >= 0
 doideira_1:   1000 z61 + f01 - f06 - f16 + f21 - f26 + f31 - f36 + f41 - f46
               + f51 - f56 + f61 + f71 - f76 >= 0
 doideira_1:   1000 z62 + f02 - f06 + f12 - f16 - f26 + f32 - f36 + f42 - f46
               + f52 - f56 + f62 + f72 - f76 >= 0
 doideira_1:   1000 z63 + f03 - f06 + f13 - f16 + f23 - f26 - f36 + f43 - f46
               + f53 - f56 + f63 + f73 - f76 >= 0
 doideira_1:   1000 z64 + f04 - f06 + f14 - f16 + f24 - f26 + f34 - f36 - f46
               + f54 - f56 + f64 + f74 - f76 >= 0
 doideira_1:   1000 z65 + f05 - f06 + f15 - f16 + f25 - f26 + f35 - f36 + f45
               - f46 - f56 + f65 + f75 - f76 >= 0
 c138:         z12 + z21  = 1
 c139:         z13 + z31  = 1
 c140:         z14 + z41  = 1
 c141:         z15 + z51  = 1
 c142:         z16 + z61  = 1
 c143:         z23 + z32  = 1
 c144:         z24 + z42  = 1
 c145:         z25 + z52  = 1
 c146:         z26 + z62  = 1
 c147:         z34 + z43  = 1
 c148:         z35 + z53  = 1
 c149:         z36 + z63  = 1
 c150:         z45 + z54  = 1
 c151:         z46 + z64  = 1
 c152:         z56 + z65  = 1
 doideira_21:  - 1000 y0 - 1000 y1 - 999 z01 - z10 - z20 + z21 - z30 + z31
               - z40 + z41 - z50 + z51 - z60 + z61 - z70 + z71 >= -2999
 doideira_22:  - 1000 y0 - 1000 y2 - 999 z02 - z10 + z12 - z20 - z30 + z32
               - z40 + z42 - z50 + z52 - z60 + z62 - z70 + z72 >= -2999
 doideira_23:  - 1000 y0 - 1000 y3 - 999 z03 - z10 + z13 - z20 + z23 - z30
               - z40 + z43 - z50 + z53 - z60 + z63 - z70 + z73 >= -2999
 doideira_24:  - 1000 y0 - 1000 y4 - 999 z04 - z10 + z14 - z20 + z24 - z30
               + z34 - z40 - z50 + z54 - z60 + z64 - z70 + z74 >= -2999
 doideira_25:  - 1000 y0 - 1000 y5 - 999 z05 - z10 + z15 - z20 + z25 - z30
               + z35 - z40 + z45 - z50 - z60 + z65 - z70 + z75 >= -2999
 doideira_26:  - 1000 y0 - 1000 y6 - 999 z06 - z10 + z16 - z20 + z26 - z30
               + z36 - z40 + z46 - z50 + z56 - z60 - z70 + z76 >= -2999
 doideira_27:  - 1000 y0 - 1000 y7 - 999 z07 - z10 + z17 - z20 + z27 - z30
               + z37 - z40 + z47 - z50 + z57 - z60 + z67 - z70 >= -2999
 doideira_28:  - 1000 y0 - 1000 y1 - z01 - 999 z10 + z20 - z21 + z30 - z31
               + z40 - z41 + z50 - z51 + z60 - z61 + z70 - z71 >= -2999
 doideira_210: - 1000 y1 - 1000 y2 - z01 + z02 - 999 z12 - z21 - z31 + z32
               - z41 + z42 - z51 + z52 - z61 + z62 - z71 + z72 >= -2999
 doideira_211: - 1000 y1 - 1000 y3 - z01 + z03 - 999 z13 - z21 + z23 - z31
               - z41 + z43 - z51 + z53 - z61 + z63 - z71 + z73 >= -2999
 doideira_212: - 1000 y1 - 1000 y4 - z01 + z04 - 999 z14 - z21 + z24 - z31
               + z34 - z41 - z51 + z54 - z61 + z64 - z71 + z74 >= -2999
 doideira_213: - 1000 y1 - 1000 y5 - z01 + z05 - 999 z15 - z21 + z25 - z31
               + z35 - z41 + z45 - z51 - z61 + z65 - z71 + z75 >= -2999
 doideira_214: - 1000 y1 - 1000 y6 - z01 + z06 - 999 z16 - z21 + z26 - z31
               + z36 - z41 + z46 - z51 + z56 - z61 - z71 + z76 >= -2999
 doideira_215: - 1000 y1 - 1000 y7 - z01 + z07 - 999 z17 - z21 + z27 - z31
               + z37 - z41 + z47 - z51 + z57 - z61 + z67 - z71 >= -2999
 doideira_216: - 1000 y0 - 1000 y2 - z02 + z10 - z12 - 999 z20 + z30 - z32
               + z40 - z42 + z50 - z52 + z60 - z62 + z70 - z72 >= -2999
 doideira_217: - 1000 y1 - 1000 y2 + z01 - z02 - z12 - 999 z21 + z31 - z32
               + z41 - z42 + z51 - z52 + z61 - z62 + z71 - z72 >= -2999
 doideira_219: - 1000 y2 - 1000 y3 - z02 + z03 - z12 + z13 - 999 z23 - z32
               - z42 + z43 - z52 + z53 - z62 + z63 - z72 + z73 >= -2999
 doideira_220: - 1000 y2 - 1000 y4 - z02 + z04 - z12 + z14 - 999 z24 - z32
               + z34 - z42 - z52 + z54 - z62 + z64 - z72 + z74 >= -2999
 doideira_221: - 1000 y2 - 1000 y5 - z02 + z05 - z12 + z15 - 999 z25 - z32
               + z35 - z42 + z45 - z52 - z62 + z65 - z72 + z75 >= -2994
 doideira_222: - 1000 y2 - 1000 y6 - z02 + z06 - z12 + z16 - 999 z26 - z32
               + z36 - z42 + z46 - z52 + z56 - z62 - z72 + z76 >= -2999
 doideira_223: - 1000 y2 - 1000 y7 - z02 + z07 - z12 + z17 - 999 z27 - z32
               + z37 - z42 + z47 - z52 + z57 - z62 + z67 - z72 >= -2999
 doideira_224: - 1000 y0 - 1000 y3 - z03 + z10 - z13 + z20 - z23 - 999 z30
               + z40 - z43 + z50 - z53 + z60 - z63 + z70 - z73 >= -2999
 doideira_225: - 1000 y1 - 1000 y3 + z01 - z03 - z13 + z21 - z23 - 999 z31
               + z41 - z43 + z51 - z53 + z61 - z63 + z71 - z73 >= -2999
 doideira_226: - 1000 y2 - 1000 y3 + z02 - z03 + z12 - z13 - z23 - 999 z32
               + z42 - z43 + z52 - z53 + z62 - z63 + z72 - z73 >= -2999
 doideira_228: - 1000 y3 - 1000 y4 - z03 + z04 - z13 + z14 - z23 + z24
               - 999 z34 - z43 - z53 + z54 - z63 + z64 - z73 + z74 >= -2999
 doideira_229: - 1000 y3 - 1000 y5 - z03 + z05 - z13 + z15 - z23 + z25
               - 999 z35 - z43 + z45 - z53 - z63 + z65 - z73 + z75 >= -2999
 doideira_230: - 1000 y3 - 1000 y6 - z03 + z06 - z13 + z16 - z23 + z26
               - 999 z36 - z43 + z46 - z53 + z56 - z63 - z73 + z76 >= -2999
 doideira_231: - 1000 y3 - 1000 y7 - z03 + z07 - z13 + z17 - z23 + z27
               - 999 z37 - z43 + z47 - z53 + z57 - z63 + z67 - z73 >= -2999
 doideira_232: - 1000 y0 - 1000 y4 - z04 + z10 - z14 + z20 - z24 + z30 - z34
               - 999 z40 + z50 - z54 + z60 - z64 + z70 - z74 >= -2999
 doideira_233: - 1000 y1 - 1000 y4 + z01 - z04 - z14 + z21 - z24 + z31 - z34
               - 999 z41 + z51 - z54 + z61 - z64 + z71 - z74 >= -2999
 doideira_234: - 1000 y2 - 1000 y4 + z02 - z04 + z12 - z14 - z24 + z32 - z34
               - 999 z42 + z52 - z54 + z62 - z64 + z72 - z74 >= -2999
 doideira_235: - 1000 y3 - 1000 y4 + z03 - z04 + z13 - z14 + z23 - z24 - z34
               - 999 z43 + z53 - z54 + z63 - z64 + z73 - z74 >= -2999
 doideira_237: - 1000 y4 - 1000 y5 - z04 + z05 - z14 + z15 - z24 + z25 - z34
               + z35 - 999 z45 - z54 - z64 + z65 - z74 + z75 >= -2999
 doideira_238: - 1000 y4 - 1000 y6 - z04 + z06 - z14 + z16 - z24 + z26 - z34
               + z36 - 999 z46 - z54 + z56 - z64 - z74 + z76 >= -2999
 doideira_239: - 1000 y4 - 1000 y7 - z04 + z07 - z14 + z17 - z24 + z27 - z34
               + z37 - 999 z47 - z54 + z57 - z64 + z67 - z74 >= -2999
 doideira_240: - 1000 y0 - 1000 y5 - z05 + z10 - z15 + z20 - z25 + z30 - z35
               + z40 - z45 - 999 z50 + z60 - z65 + z70 - z75 >= -2999
 doideira_241: - 1000 y1 - 1000 y5 + z01 - z05 - z15 + z21 - z25 + z31 - z35
               + z41 - z45 - 999 z51 + z61 - z65 + z71 - z75 >= -2999
 doideira_242: - 1000 y2 - 1000 y5 + z02 - z05 + z12 - z15 - z25 + z32 - z35
               + z42 - z45 - 999 z52 + z62 - z65 + z72 - z75 >= -2994
 doideira_243: - 1000 y3 - 1000 y5 + z03 - z05 + z13 - z15 + z23 - z25 - z35
               + z43 - z45 - 999 z53 + z63 - z65 + z73 - z75 >= -2999
 doideira_244: - 1000 y4 - 1000 y5 + z04 - z05 + z14 - z15 + z24 - z25 + z34
               - z35 - z45 - 999 z54 + z64 - z65 + z74 - z75 >= -2999
 doideira_246: - 1000 y5 - 1000 y6 - z05 + z06 - z15 + z16 - z25 + z26 - z35
               + z36 - z45 + z46 - 999 z56 - z65 - z75 + z76 >= -2999
 doideira_247: - 1000 y5 - 1000 y7 - z05 + z07 - z15 + z17 - z25 + z27 - z35
               + z37 - z45 + z47 - 999 z57 - z65 + z67 - z75 >= -2999
 doideira_248: - 1000 y0 - 1000 y6 - z06 + z10 - z16 + z20 - z26 + z30 - z36
               + z40 - z46 + z50 - z56 - 999 z60 + z70 - z76 >= -2999
 doideira_249: - 1000 y1 - 1000 y6 + z01 - z06 - z16 + z21 - z26 + z31 - z36
               + z41 - z46 + z51 - z56 - 999 z61 + z71 - z76 >= -2999
 doideira_250: - 1000 y2 - 1000 y6 + z02 - z06 + z12 - z16 - z26 + z32 - z36
               + z42 - z46 + z52 - z56 - 999 z62 + z72 - z76 >= -2999
 doideira_251: - 1000 y3 - 1000 y6 + z03 - z06 + z13 - z16 + z23 - z26 - z36
               + z43 - z46 + z53 - z56 - 999 z63 + z73 - z76 >= -2999
 doideira_252: - 1000 y4 - 1000 y6 + z04 - z06 + z14 - z16 + z24 - z26 + z34
               - z36 - z46 + z54 - z56 - 999 z64 + z74 - z76 >= -2999
 doideira_253: - 1000 y5 - 1000 y6 + z05 - z06 + z15 - z16 + z25 - z26 + z35
               - z36 + z45 - z46 - z56 - 999 z65 + z75 - z76 >= -2999
 doideira_255: - 1000 y6 - 1000 y7 - z06 + z07 - z16 + z17 - z26 + z27 - z36
               + z37 - z46 + z47 - z56 + z57 - 999 z67 - z76 >= -2999
 doideira_256: - 1000 y0 - 1000 y7 - z07 + z10 - z17 + z20 - z27 + z30 - z37
               + z40 - z47 + z50 - z57 + z60 - z67 - 999 z70 >= -2999
 doideira_257: - 1000 y1 - 1000 y7 + z01 - z07 - z17 + z21 - z27 + z31 - z37
               + z41 - z47 + z51 - z57 + z61 - z67 - 999 z71 >= -2999
 doideira_258: - 1000 y2 - 1000 y7 + z02 - z07 + z12 - z17 - z27 + z32 - z37
               + z42 - z47 + z52 - z57 + z62 - z67 - 999 z72 >= -2999
 doideira_259: - 1000 y3 - 1000 y7 + z03 - z07 + z13 - z17 + z23 - z27 - z37
               + z43 - z47 + z53 - z57 + z63 - z67 - 999 z73 >= -2999
 doideira_260: - 1000 y4 - 1000 y7 + z04 - z07 + z14 - z17 + z24 - z27 + z34
               - z37 - z47 + z54 - z57 + z64 - z67 - 999 z74 >= -2999
 doideira_261: - 1000 y5 - 1000 y7 + z05 - z07 + z15 - z17 + z25 - z27 + z35
               - z37 + z45 - z47 - z57 + z65 - z67 - 999 z75 >= -2999
 doideira_262: - 1000 y6 - 1000 y7 + z06 - z07 + z16 - z17 + z26 - z27 + z36
               - z37 + z46 - z47 + z56 - z57 - z67 - 999 z76 >= -2999
Bounds
 0 <= y0 <= 1
 0 <= y1 <= 1
 0 <= y2 <= 1
 0 <= y3 <= 1
 0 <= y4 <= 1
 0 <= y5 <= 1
 0 <= y6 <= 1
 0 <= y7 <= 1
 0 <= x01 <= 1
 0 <= x02 <= 1
 0 <= x03 <= 1
 0 <= x04 <= 1
 0 <= x05 <= 1
 0 <= x06 <= 1
 0 <= x07 <= 1
 0 <= x10 <= 1
 0 <= x12 <= 1
 0 <= x13 <= 1
 0 <= x14 <= 1
 0 <= x15 <= 1
 0 <= x16 <= 1
 0 <= x17 <= 1
 0 <= x20 <= 1
 0 <= x21 <= 1
 0 <= x23 <= 1
 0 <= x24 <= 1
 0 <= x25 <= 1
 0 <= x26 <= 1
 0 <= x27 <= 1
 0 <= x30 <= 1
 0 <= x31 <= 1
 0 <= x32 <= 1
 0 <= x34 <= 1
 0 <= x35 <= 1
 0 <= x36 <= 1
 0 <= x37 <= 1
 0 <= x40 <= 1
 0 <= x41 <= 1
 0 <= x42 <= 1
 0 <= x43 <= 1
 0 <= x45 <= 1
 0 <= x46 <= 1
 0 <= x47 <= 1
 0 <= x50 <= 1
 0 <= x51 <= 1
 0 <= x52 <= 1
 0 <= x53 <= 1
 0 <= x54 <= 1
 0 <= x56 <= 1
 0 <= x57 <= 1
 0 <= x60 <= 1
 0 <= x61 <= 1
 0 <= x62 <= 1
 0 <= x63 <= 1
 0 <= x64 <= 1
 0 <= x65 <= 1
 0 <= x67 <= 1
 0 <= x70 <= 1
 0 <= x71 <= 1
 0 <= x72 <= 1
 0 <= x73 <= 1
 0 <= x74 <= 1
 0 <= x75 <= 1
 0 <= x76 <= 1
 0 <= z01 <= 1
 0 <= z02 <= 1
 0 <= z03 <= 1
 0 <= z04 <= 1
 0 <= z05 <= 1
 0 <= z06 <= 1
 0 <= z07 <= 1
 0 <= z10 <= 1
 0 <= z12 <= 1
 0 <= z13 <= 1
 0 <= z14 <= 1
 0 <= z15 <= 1
 0 <= z16 <= 1
 0 <= z17 <= 1
 0 <= z20 <= 1
 0 <= z21 <= 1
 0 <= z23 <= 1
 0 <= z24 <= 1
 0 <= z25 <= 1
 0 <= z26 <= 1
 0 <= z27 <= 1
 0 <= z30 <= 1
 0 <= z31 <= 1
 0 <= z32 <= 1
 0 <= z34 <= 1
 0 <= z35 <= 1
 0 <= z36 <= 1
 0 <= z37 <= 1
 0 <= z40 <= 1
 0 <= z41 <= 1
 0 <= z42 <= 1
 0 <= z43 <= 1
 0 <= z45 <= 1
 0 <= z46 <= 1
 0 <= z47 <= 1
 0 <= z50 <= 1
 0 <= z51 <= 1
 0 <= z52 <= 1
 0 <= z53 <= 1
 0 <= z54 <= 1
 0 <= z56 <= 1
 0 <= z57 <= 1
 0 <= z60 <= 1
 0 <= z61 <= 1
 0 <= z62 <= 1
 0 <= z63 <= 1
 0 <= z64 <= 1
 0 <= z65 <= 1
 0 <= z67 <= 1
 0 <= z70 <= 1
 0 <= z71 <= 1
 0 <= z72 <= 1
 0 <= z73 <= 1
 0 <= z74 <= 1
 0 <= z75 <= 1
 0 <= z76 <= 1
 0 <= f01 <= 9.22337203685478e+18
 0 <= f02 <= 9.22337203685478e+18
 0 <= f03 <= 9.22337203685478e+18
 0 <= f04 <= 9.22337203685478e+18
 0 <= f05 <= 9.22337203685478e+18
 0 <= f06 <= 9.22337203685478e+18
 0 <= f07 <= 9.22337203685478e+18
 0 <= f10 <= 9.22337203685478e+18
 0 <= f12 <= 9.22337203685478e+18
 0 <= f13 <= 9.22337203685478e+18
 0 <= f14 <= 9.22337203685478e+18
 0 <= f15 <= 9.22337203685478e+18
 0 <= f16 <= 9.22337203685478e+18
 0 <= f17 <= 9.22337203685478e+18
 0 <= f20 <= 9.22337203685478e+18
 0 <= f21 <= 9.22337203685478e+18
 0 <= f23 <= 9.22337203685478e+18
 0 <= f24 <= 9.22337203685478e+18
 0 <= f25 <= 9.22337203685478e+18
 0 <= f26 <= 9.22337203685478e+18
 0 <= f27 <= 9.22337203685478e+18
 0 <= f30 <= 9.22337203685478e+18
 0 <= f31 <= 9.22337203685478e+18
 0 <= f32 <= 9.22337203685478e+18
 0 <= f34 <= 9.22337203685478e+18
 0 <= f35 <= 9.22337203685478e+18
 0 <= f36 <= 9.22337203685478e+18
 0 <= f37 <= 9.22337203685478e+18
 0 <= f40 <= 9.22337203685478e+18
 0 <= f41 <= 9.22337203685478e+18
 0 <= f42 <= 9.22337203685478e+18
 0 <= f43 <= 9.22337203685478e+18
 0 <= f45 <= 9.22337203685478e+18
 0 <= f46 <= 9.22337203685478e+18
 0 <= f47 <= 9.22337203685478e+18
 0 <= f50 <= 9.22337203685478e+18
 0 <= f51 <= 9.22337203685478e+18
 0 <= f52 <= 9.22337203685478e+18
 0 <= f53 <= 9.22337203685478e+18
 0 <= f54 <= 9.22337203685478e+18
 0 <= f56 <= 9.22337203685478e+18
 0 <= f57 <= 9.22337203685478e+18
 0 <= f60 <= 9.22337203685478e+18
 0 <= f61 <= 9.22337203685478e+18
 0 <= f62 <= 9.22337203685478e+18
 0 <= f63 <= 9.22337203685478e+18
 0 <= f64 <= 9.22337203685478e+18
 0 <= f65 <= 9.22337203685478e+18
 0 <= f67 <= 9.22337203685478e+18
 0 <= f70 <= 9.22337203685478e+18
 0 <= f71 <= 9.22337203685478e+18
 0 <= f72 <= 9.22337203685478e+18
 0 <= f73 <= 9.22337203685478e+18
 0 <= f74 <= 9.22337203685478e+18
 0 <= f75 <= 9.22337203685478e+18
 0 <= f76 <= 9.22337203685478e+18
Binaries
 y0  y1  y2  y3  y4  y5  y6  y7  x01  x02  x03  x04  x05  x06  x07  x10  x12 
 x13  x14  x15  x16  x17  x20  x21  x23  x24  x25  x26  x27  x30  x31  x32 
 x34  x35  x36  x37  x40  x41  x42  x43  x45  x46  x47  x50  x51  x52  x53 
 x54  x56  x57  x60  x61  x62  x63  x64  x65  x67  x70  x71  x72  x73  x74 
 x75  x76  z01  z02  z03  z04  z05  z06  z07  z10  z12  z13  z14  z15  z16 
 z17  z20  z21  z23  z24  z25  z26  z27  z30  z31  z32  z34  z35  z36  z37 
 z40  z41  z42  z43  z45  z46  z47  z50  z51  z52  z53  z54  z56  z57  z60 
 z61  z62  z63  z64  z65  z67  z70  z71  z72  z73  z74  z75  z76 
Generals
 f01  f02  f03  f04  f05  f06  f07  f10  f12  f13  f14  f15  f16  f17  f20 
 f21  f23  f24  f25  f26  f27  f30  f31  f32  f34  f35  f36  f37  f40  f41 
 f42  f43  f45  f46  f47  f50  f51  f52  f53  f54  f56  f57  f60  f61  f62 
 f63  f64  f65  f67  f70  f71  f72  f73  f74  f75  f76 
End
